
List of user-set options:

                                    Name   Value                used
                           compl_inf_tol = 1                     yes
                         constr_viol_tol = 1                     yes
                            dual_inf_tol = 1000                  yes
                           linear_solver = ma97                  yes
                              ma86_small = 1e-30                  no
                                  ma86_u = 0.0001                 no
                              ma97_order = best                  yes
                              ma97_small = 1e-30                 yes
                            ma97_switch1 = at_start              yes
                            ma97_switch2 = od_hd_reuse           yes
                                  ma97_u = 1e-06                 yes
                               ma97_umax = 0.5                   yes
                                max_iter = 2000                  yes
                    max_refinement_steps = 20                    yes
                    min_refinement_steps = 5                     yes
                                 mu_init = 1e-06                 yes
           mu_superlinear_decrease_power = 1.25                  yes
                   nlp_scaling_min_value = 1e-08                 yes
                        option_file_name = Preset_Case:_121_NCP.opt  yes
                             output_file = ./tmp/Preset_Case:_121_NCP.output  yes
                      print_user_options = yes                   yes
        required_infeasibility_reduction = 1                      no
                                     tol = 1e-08                 yes
                   warm_start_bound_frac = 1e-20                 yes
                   warm_start_bound_push = 1e-20                 yes
                   warm_start_init_point = yes                   yes
              warm_start_mult_bound_push = 1e-20                 yes
                warm_start_mult_init_max = 1e+40                 yes
             warm_start_slack_bound_frac = 1e-20                 yes
             warm_start_slack_bound_push = 1e-20                 yes

******************************************************************************
This program contains Ipopt, a library for large-scale nonlinear optimization.
 Ipopt is released as open source code under the Eclipse Public License (EPL).
         For more information visit http://projects.coin-or.org/Ipopt
******************************************************************************

This is Ipopt version 3.12.10, running with linear solver ma97.

Number of nonzeros in equality constraint Jacobian...:   117140
Number of nonzeros in inequality constraint Jacobian.:      213
Number of nonzeros in Lagrangian Hessian.............:    47462

Total number of variables............................:    29971
                     variables with only lower bounds:    11312
                variables with lower and upper bounds:    15132
                     variables with only upper bounds:        0
Total number of equality constraints.................:    29864
Total number of inequality constraints...............:       25
        inequality constraints with only lower bounds:        4
   inequality constraints with lower and upper bounds:        0
        inequality constraints with only upper bounds:       21

iter    objective    inf_pr   inf_du lg(mu)  ||d||  lg(rg) alpha_du alpha_pr  ls
   0 -4.5472370e-02 3.00e-01 4.44e+01  -6.0 0.00e+00    -  0.00e+00 0.00e+00   0
   1 -4.5471867e-02 3.00e-01 4.44e+01  -6.0 3.29e+02   2.0 3.21e-08 5.15e-07h  1
   2 -4.5471866e-02 3.00e-01 9.31e+07  -6.0 3.00e-01   1.5 9.32e-01 1.47e-05h  1
In iteration 2, 1 Slack too small, adjusting variable bound
   3 -4.5471873e-02 3.00e-01 9.51e+07  -6.0 2.82e+02   1.0 2.59e-07 5.69e-07h  1
   4r-4.5471873e-02 3.00e-01 1.00e+03  -0.5 0.00e+00   0.6 0.00e+00 3.32e-07R  2
   5r-4.5354977e-02 5.97e-01 1.61e+03  -0.5 3.68e+06    -  5.13e-07 3.14e-07f  1
   6r-4.5354977e-02 5.97e-01 9.99e+02  -0.5 0.00e+00    -  0.00e+00 8.34e-08R  2
   7r-4.5355657e-02 5.97e-01 3.04e+03  -0.5 2.14e+04    -  7.36e-07 7.01e-08f  1
   8 -4.5355521e-02 5.97e-01 4.60e+06  -6.0 2.56e+02    -  4.58e-02 2.12e-05h  1
   9 -4.5355689e-02 5.97e-01 9.05e+06  -6.0 7.41e+02    -  2.32e-05 4.57e-05h  1
iter    objective    inf_pr   inf_du lg(mu)  ||d||  lg(rg) alpha_du alpha_pr  ls
  10 -4.5403060e-02 5.94e-01 8.99e+06  -6.0 7.43e+02    -  5.75e-04 5.80e-03h  1
  11 -4.5341499e-02 5.93e-01 8.98e+06  -6.0 1.11e+03    -  2.34e-03 8.67e-04h  2
  12 -4.5330077e-02 5.93e-01 8.98e+06  -6.0 9.89e+02    -  3.58e-09 1.84e-04f  5
  13 -4.5327030e-02 5.93e-01 8.98e+06  -6.0 7.42e+02    -  3.46e-03 6.03e-05h  6
  14 -4.5318397e-02 5.93e-01 8.98e+06  -6.0 1.03e+03    -  2.67e-09 1.18e-04f  5
  15r-4.5318397e-02 5.93e-01 9.99e+02  -0.5 0.00e+00   0.1 0.00e+00 2.68e-07R  6
  16r-4.5317619e-02 5.93e-01 1.90e+03  -0.5 9.01e+03    -  3.07e-07 8.79e-07f  1
  17r-4.5317619e-02 5.93e-01 9.99e+02  -0.5 0.00e+00    -  0.00e+00 1.30e-08R  8
  18r-4.5318009e-02 5.93e-01 2.45e+03  -0.5 1.12e+04    -  3.17e-06 4.23e-08f  1
  19 -4.5317917e-02 5.93e-01 3.48e+06  -6.0 2.57e+02    -  4.27e-02 1.40e-05h  1
iter    objective    inf_pr   inf_du lg(mu)  ||d||  lg(rg) alpha_du alpha_pr  ls
  20 -4.5188482e-02 5.86e-01 2.59e+09  -6.0 3.64e+02    -  1.54e-05 1.14e-02h  1
  21r-4.5188482e-02 5.86e-01 9.99e+02  -0.5 0.00e+00    -  0.00e+00 2.63e-07R  2
  22r-4.5189949e-02 5.86e-01 2.59e+03  -0.5 9.68e+03    -  4.52e-06 2.09e-07f  1
  23 -4.5189948e-02 5.86e-01 2.29e+06  -6.0 2.67e+02    -  2.62e-02 2.08e-07h  4
  24 -4.5171017e-02 5.86e-01 5.11e+08  -6.0 2.19e+03    -  1.64e-06 3.67e-04h  1
  25 -4.5123743e-02 5.84e-01 5.10e+08  -6.0 7.51e+02    -  7.08e-03 3.75e-03h  1
  26 -4.5096636e-02 5.82e-01 5.09e+08  -6.0 7.25e+02    -  4.22e-03 1.75e-03h  1
  27 -4.5096473e-02 5.82e-01 5.09e+08  -6.0 7.38e+02    -  1.26e-02 1.02e-05h  1
  28 -4.5039935e-02 5.80e-01 5.07e+08  -6.0 7.13e+02    -  1.07e-02 3.73e-03h  4
  29 -4.4991711e-02 5.78e-01 5.05e+08  -6.0 7.00e+02    -  1.71e-02 3.10e-03h  4
iter    objective    inf_pr   inf_du lg(mu)  ||d||  lg(rg) alpha_du alpha_pr  ls
  30 -4.4950217e-02 5.77e-01 5.04e+08  -6.0 7.04e+02    -  2.76e-02 2.69e-03h  4
  31 -4.4877878e-02 5.74e-01 5.01e+08  -6.0 7.25e+02    -  3.17e-02 4.66e-03h  3
  32 -4.4822865e-02 5.72e-01 5.00e+08  -6.0 7.38e+02    -  3.89e-02 3.54e-03h  3
  33 -4.4778816e-02 5.70e-01 4.98e+08  -6.0 7.64e+02    -  5.48e-02 2.76e-03h  3
  34 -4.4730695e-02 5.68e-01 4.97e+08  -6.0 8.03e+02    -  4.15e-02 2.63e-03h  3
  35 -4.4676802e-02 5.67e-01 4.96e+08  -6.0 8.16e+02    -  9.21e-02 2.47e-03h  4
  36 -4.4574101e-02 5.65e-01 4.94e+08  -6.0 8.55e+02    -  4.79e-03 4.11e-03h  5
  37 -4.4471803e-02 5.62e-01 4.92e+08  -6.0 8.49e+02    -  5.81e-02 4.18e-03h  5
  38 -4.2750496e-02 4.84e-01 4.57e+08  -6.0 8.62e+02    -  1.93e-02 6.99e-02w  1
  39 -4.2749996e-02 4.84e-01 4.57e+08  -6.0 7.43e+02    -  1.24e-01 4.64e-05w  1
iter    objective    inf_pr   inf_du lg(mu)  ||d||  lg(rg) alpha_du alpha_pr  ls
  40 -4.0297024e-02 1.27e+00 3.70e+08  -6.0 7.59e+02    -  2.10e-01 1.92e-01w  1
  41 -4.4364222e-02 5.59e-01 4.90e+08  -6.0 4.00e+02    -  1.93e-02 4.37e-03h  4
  42 -4.4146997e-02 5.54e-01 4.85e+08  -6.0 8.62e+02    -  1.18e-01 8.98e-03h  4
  43 -4.3907036e-02 5.47e-01 4.80e+08  -6.0 8.79e+02    -  5.42e-02 1.00e-02h  4
  44 -4.3658211e-02 5.40e-01 4.75e+08  -6.0 8.69e+02    -  1.61e-01 1.08e-02h  4
  45 -4.3506399e-02 5.36e-01 4.72e+08  -6.0 8.64e+02    -  1.76e-01 6.80e-03h  5
  46 -4.3402572e-02 5.33e-01 4.70e+08  -6.0 8.60e+02    -  2.21e-01 4.74e-03h  6
  47 -4.3320224e-02 5.31e-01 4.68e+08  -6.0 8.55e+02    -  2.22e-01 3.74e-03h  7
  48 -4.3223401e-02 5.29e-01 4.66e+08  -6.0 8.42e+02    -  2.23e-01 4.36e-03h  7
  49 -4.3121453e-02 5.26e-01 4.64e+08  -6.0 8.20e+02    -  2.29e-01 4.67e-03h  7
iter    objective    inf_pr   inf_du lg(mu)  ||d||  lg(rg) alpha_du alpha_pr  ls
  50 -4.3031901e-02 5.23e-01 4.62e+08  -6.0 7.92e+02    -  2.38e-01 4.35e-03h  6
  51 -4.1916315e-02 4.81e-01 4.33e+08  -6.0 8.32e+02    -  1.65e-01 6.14e-02w  1
  52 -3.5247894e-02 1.05e+01 2.91e+08  -6.0 6.83e+02    -  2.93e-01 3.28e-01w  1
  53 -3.5241782e-02 1.05e+01 2.91e+08  -6.0 2.39e+03    -  1.74e-02 1.73e-04w  1
  54 -4.2962177e-02 5.21e-01 4.60e+08  -6.0 9.15e+02    -  1.65e-01 3.84e-03h  4
  55 -4.2923808e-02 5.20e-01 4.59e+08  -6.0 8.84e+02    -  3.09e-01 2.44e-03h  5
  56 -4.2897136e-02 5.18e-01 4.57e+08  -6.0 1.00e+03    -  1.43e-01 2.70e-03h  4
  57 -4.2875280e-02 5.17e-01 4.56e+08  -6.0 1.15e+03    -  2.17e-01 2.41e-03h  4
  58 -4.2859296e-02 5.16e-01 4.56e+08  -6.0 1.56e+03    -  1.91e-01 1.51e-03h  5
  59 -4.2843275e-02 5.15e-01 4.55e+08  -6.0 1.95e+03    -  2.19e-01 1.10e-03h  7
iter    objective    inf_pr   inf_du lg(mu)  ||d||  lg(rg) alpha_du alpha_pr  ls
  60 -4.2817627e-02 5.15e-01 4.54e+08  -6.0 2.49e+03    -  2.02e-01 1.51e-03h  8
  61 -4.2796706e-02 5.14e-01 4.54e+08  -6.0 3.03e+03    -  3.21e-01 1.12e-03h  9
  62 -4.2786020e-02 5.14e-01 4.54e+08  -6.0 3.91e+03    -  1.63e-01 5.00e-04h 10
  63 -4.2775328e-02 5.14e-01 4.54e+08  -6.0 4.29e+03    -  2.10e-01 4.93e-04h 10
  64 -3.7335233e-02 3.38e+01 3.36e+08  -6.0 4.97e+03    -  1.80e-01 2.59e-01w  1
  65 -3.7350870e-02 3.37e+01 3.36e+08  -6.0 1.56e+02  -0.4 3.01e-03 1.97e-03w  1
  66 -3.7391612e-02 3.36e+01 3.34e+08  -6.0 1.64e+02  -0.9 3.68e-02 4.88e-03w  1
  67 -4.2764703e-02 5.13e-01 4.53e+08  -6.0 1.74e+02  -1.3 1.80e-01 5.05e-04h  9
  68 -4.2754199e-02 5.13e-01 4.53e+08  -6.0 5.68e+03    -  2.30e-01 5.45e-04h 10
  69 -4.2748759e-02 5.13e-01 4.53e+08  -6.0 7.52e+03    -  1.00e-01 3.28e-04h 10
iter    objective    inf_pr   inf_du lg(mu)  ||d||  lg(rg) alpha_du alpha_pr  ls
  70 -4.2744950e-02 5.13e-01 4.53e+08  -6.0 8.10e+03    -  1.86e-01 2.49e-04h 10
  71 -4.2742695e-02 5.13e-01 4.53e+08  -6.0 9.22e+03    -  6.48e-02 1.68e-04h 10
  72 -4.2740476e-02 5.13e-01 4.53e+08  -6.0 8.95e+03    -  1.74e-01 1.71e-04h 10
  73 -4.2737952e-02 5.13e-01 4.53e+08  -6.0 1.01e+04    -  7.71e-02 2.01e-04h 10
  74 -4.2734762e-02 5.12e-01 4.52e+08  -6.0 1.09e+04    -  1.60e-01 2.44e-04h 10
  75 -4.2728201e-02 5.12e-01 4.52e+08  -6.0 1.24e+04    -  1.43e-01 4.30e-04h 10
  76 -4.2724441e-02 5.12e-01 4.52e+08  -6.0 1.37e+04    -  1.77e-01 2.01e-04h 11
  77 -4.2874330e-02 4.99e-01 4.43e+08  -6.0 4.21e+02  -1.8 3.34e-02 1.98e-02w  1
  78 -4.2597827e-02 1.42e+00 4.04e+08  -6.0 3.92e+02  -2.3 1.90e-01 8.87e-02w  1
  79 -4.0141238e-02 2.85e+00 3.60e+08  -6.0 2.99e+02  -2.8 9.57e-02 1.08e-01w  1
iter    objective    inf_pr   inf_du lg(mu)  ||d||  lg(rg) alpha_du alpha_pr  ls
  80 -4.2761914e-02 5.09e-01 4.50e+08  -6.0 2.39e+02  -3.2 3.34e-02 4.95e-03h  2
  81 -4.2689844e-02 5.07e-01 4.48e+08  -6.0 4.27e+02  -3.7 7.43e-02 3.32e-03h  6
  82 -4.2669877e-02 5.07e-01 4.48e+08  -6.0 5.38e+02  -4.2 1.15e-01 1.00e-03h  8
  83 -4.2650929e-02 5.06e-01 4.47e+08  -6.0 7.30e+02  -4.7 2.33e-01 1.30e-03h  8
  84 -4.2637643e-02 5.05e-01 4.47e+08  -6.0 1.23e+03  -5.2 5.59e-01 1.39e-03h  9
  85 -4.2637547e-02 5.05e-01 4.47e+08  -6.0 1.25e+04  -5.6 1.45e-02 1.64e-05h 11
  86 -4.2624884e-02 5.05e-01 4.46e+08  -6.0 1.98e+03  -5.2 5.71e-01 1.34e-03h  9
  87 -4.2625175e-02 5.05e-01 4.46e+08  -6.0 5.80e+04  -5.7 2.80e-03 1.22e-05h  9
  88 -4.2619032e-02 5.04e-01 4.46e+08  -6.0 3.14e+03  -5.3 4.22e-01 5.75e-04h  9
  89 -4.2595747e-02 5.04e-01 4.45e+08  -6.0 1.36e+03  -4.8 2.72e-01 1.83e-03h  8
iter    objective    inf_pr   inf_du lg(mu)  ||d||  lg(rg) alpha_du alpha_pr  ls
  90 -4.1750953e-02 5.69e+00 4.17e+08  -6.0 5.40e+03  -5.3 5.55e-02 6.30e-02w  1
  91 -3.8559871e-02 1.45e+01 3.55e+08  -6.0 2.22e+03  -4.9 7.88e-02 1.48e-01w  1
  92 -3.8559842e-02 1.45e+01 3.55e+08  -6.0 1.09e+05  -5.4 1.32e-02 2.88e-07w  1
  93 -4.2592447e-02 5.03e-01 4.45e+08  -6.0 2.35e+03  -4.9 5.55e-02 2.46e-04h  8
  94 -4.2591305e-02 5.03e-01 4.45e+08  -6.0 7.46e+03  -5.4 7.44e-02 7.87e-05h 10
  95 -4.2582699e-02 5.03e-01 4.45e+08  -6.0 2.53e+03  -5.0 5.82e-01 6.65e-04h 10
  96 -4.2582268e-02 5.03e-01 4.45e+08  -6.0 1.18e+04  -5.5 2.26e-02 2.29e-05h 11
  97 -4.2575635e-02 5.03e-01 4.44e+08  -6.0 4.04e+03  -5.0 2.70e-01 4.52e-04h  9
  98 -4.2184794e-02 4.91e+00 4.36e+08  -6.0 1.49e+04  -5.5 1.80e-02 1.80e-02s 17
  99 -4.2168307e-02 4.91e+00 4.36e+08  -6.0 4.25e+03  -5.1 4.85e-04 4.85e-04s 17
iter    objective    inf_pr   inf_du lg(mu)  ||d||  lg(rg) alpha_du alpha_pr  ls
 100 -3.8354828e-02 1.92e+01 4.05e+08  -6.0 1.28e+04  -5.6 7.22e-02 7.22e-02s 17
 101r-3.8354828e-02 1.92e+01 1.00e+03   1.1 0.00e+00  -5.1 0.00e+00 0.00e+00R  1
 102r-3.8183854e-02 1.92e+01 1.00e+03   1.1 6.81e+04    -  2.44e-07 2.92e-07f  1
 103r-3.7727417e-02 1.92e+01 1.01e+03   1.1 1.59e+04    -  3.67e-06 6.91e-07f  1
 104 -3.7727390e-02 1.92e+01 2.21e+03  -6.0 2.49e+02    -  3.89e-02 1.76e-05h  1
 105 -3.7725100e-02 1.92e+01 1.35e+04  -6.0 2.80e+02    -  2.12e-05 5.15e-04h  1
 106 -3.7682145e-02 1.90e+01 1.34e+04  -6.0 3.99e+02    -  6.03e-03 7.03e-03h  1
 107 -3.7653059e-02 1.90e+01 2.80e+04  -6.0 3.98e+02    -  8.30e-03 2.88e-03h  2
 108 -3.7641746e-02 1.90e+01 2.94e+05  -6.0 3.96e+02    -  4.34e-02 1.14e-03h  4
 109 -3.7640723e-02 1.90e+01 3.84e+05  -6.0 4.01e+02    -  1.52e-02 1.01e-04h  9
iter    objective    inf_pr   inf_du lg(mu)  ||d||  lg(rg) alpha_du alpha_pr  ls
 110 -3.7640099e-02 1.90e+01 1.06e+06  -6.0 4.02e+02    -  1.13e-01 6.12e-05h 10
 111 -3.7500476e-02 1.87e+01 1.05e+06  -6.0 4.21e+02    -  1.31e-02 1.31e-02s 19
 112 -3.6473961e-02 1.69e+01 9.48e+05  -6.0 4.08e+02    -  9.64e-02 9.64e-02s 19
 113 -3.5732152e-02 1.57e+01 8.81e+05  -6.0 2.96e+02    -  7.16e-02 7.16e-02s 19
 114r-3.5732152e-02 1.57e+01 1.00e+03   1.1 0.00e+00    -  0.00e+00 0.00e+00R  1
 115r-3.5704196e-02 1.57e+01 2.11e+04   1.1 3.51e+04    -  8.77e-07 1.39e-07f  1
 116 -3.5704126e-02 1.57e+01 1.25e+05  -6.0 2.10e+02    -  6.88e-03 1.60e-05h  1
 117 -3.5703611e-02 1.57e+01 5.88e+05  -6.0 1.88e+02    -  2.14e-05 1.01e-04h  1
 118 -3.5702584e-02 1.57e+01 7.16e+05  -6.0 2.54e+02    -  1.02e-01 1.53e-04h  1
 119 -3.5349658e-02 1.51e+01 1.14e+07  -6.0 2.46e+02    -  2.74e-04 3.62e-02h  1
iter    objective    inf_pr   inf_du lg(mu)  ||d||  lg(rg) alpha_du alpha_pr  ls
 120 -3.5340937e-02 1.51e+01 1.14e+07  -6.0 2.13e+02    -  7.42e-03 8.84e-04h  1
 121 -3.5271872e-02 1.50e+01 1.13e+07  -6.0 2.14e+02    -  5.16e-03 6.72e-03h  4
 122 -3.5253025e-02 1.50e+01 1.13e+07  -6.0 2.09e+02    -  1.24e-02 1.81e-03h  6
 123 -3.5241404e-02 1.50e+01 1.13e+07  -6.0 2.08e+02    -  2.10e-02 1.11e-03h  7
 124 -3.5237538e-02 1.50e+01 1.13e+07  -6.0 2.09e+02    -  3.44e-02 3.65e-04h  9
 125 -3.5235488e-02 1.50e+01 1.13e+07  -6.0 2.12e+02    -  3.18e-02 1.91e-04h 10
 126 -3.4177466e-02 1.35e+01 1.02e+07  -6.0 2.15e+02    -  2.51e-02 9.73e-02h  1
 127r-3.4177466e-02 1.35e+01 1.00e+03   1.0 0.00e+00    -  0.00e+00 3.00e-07R  5
 128r-3.4161704e-02 1.35e+01 5.68e+03   1.0 4.74e+04    -  1.25e-08 1.09e-07f  1
 129 -3.4161593e-02 1.35e+01 4.52e+04  -6.0 1.73e+02    -  7.99e-03 2.61e-05h  1
iter    objective    inf_pr   inf_du lg(mu)  ||d||  lg(rg) alpha_du alpha_pr  ls
 130 -3.4161098e-02 1.35e+01 9.36e+04  -6.0 1.16e+02    -  4.58e-05 9.47e-05h  1
 131 -3.4160326e-02 1.35e+01 2.38e+05  -6.0 1.90e+02    -  2.80e-02 1.19e-04h  1
 132 -3.4074308e-02 1.34e+01 7.72e+05  -6.0 1.61e+02    -  2.49e-04 8.55e-03h  1
 133 -3.4071008e-02 1.34e+01 1.95e+06  -6.0 4.77e+02    -  3.76e-02 3.23e-04h  1
 134 -3.3685545e-02 1.29e+01 1.14e+06  -6.0 2.69e+02    -  1.06e-02 3.67e-02h  1
 135 -3.3424347e-02 1.26e+01 5.30e+06  -6.0 2.66e+02    -  1.49e-01 2.50e-02h  1
 136 -3.2960196e-02 1.14e+01 4.79e+06  -6.0 2.51e+02    -  9.48e-02 9.52e-02h  1
 137 -3.2321579e-02 1.01e+01 1.12e+06  -6.0 2.16e+02    -  1.83e-02 1.09e-01h  1
 138 -3.2291535e-02 1.01e+01 1.51e+07  -6.0 2.07e+02    -  3.39e-01 5.12e-03h  1
 139 -3.2039613e-02 9.56e+00 1.33e+07  -6.0 2.94e+02    -  3.80e-03 5.16e-02h  1
iter    objective    inf_pr   inf_du lg(mu)  ||d||  lg(rg) alpha_du alpha_pr  ls
 140r-3.2039613e-02 9.56e+00 1.00e+03   0.8 0.00e+00    -  0.00e+00 2.81e-07R  6
 141r-3.2011694e-02 9.56e+00 9.98e+03   0.8 2.66e+04    -  1.89e-06 2.52e-07f  1
 142 -3.2011499e-02 9.56e+00 5.72e+03  -6.0 1.04e+02    -  4.82e-04 7.69e-05h  1
 143 -3.2009884e-02 9.55e+00 4.90e+04  -6.0 1.05e+02    -  8.52e-05 6.27e-04h  1
 144 -3.2009705e-02 9.55e+00 7.05e+06  -6.0 1.48e+02    -  1.52e-01 2.21e-05h  1
 145 -3.2001428e-02 9.54e+00 7.04e+06  -6.0 2.26e+02    -  7.24e-04 8.00e-04h  1
 146 -3.1994304e-02 9.54e+00 7.22e+06  -6.0 3.87e+02    -  1.94e-03 2.71e-04h  1
 147 -3.1893860e-02 9.50e+00 6.92e+06  -6.0 4.99e+02    -  2.79e-03 4.61e-03h  1
 148 -3.1857078e-02 9.41e+00 6.78e+06  -6.0 2.16e+02    -  7.78e-03 9.41e-03h  1
 149 -3.1821263e-02 9.32e+00 8.14e+06  -6.0 2.16e+02    -  4.12e-02 9.08e-03h  1
iter    objective    inf_pr   inf_du lg(mu)  ||d||  lg(rg) alpha_du alpha_pr  ls
 150 -3.1368140e-02 8.32e+00 3.60e+06  -6.0 2.25e+02    -  2.33e-02 1.07e-01h  1
 151 -3.1372008e-02 8.31e+00 3.55e+06  -6.0 2.94e+02    -  3.88e-04 9.88e-04h  1
 152 -3.0877545e-02 7.31e+00 1.96e+06  -6.0 2.05e+02    -  3.12e-02 1.21e-01h  1
 153 -3.0723166e-02 7.03e+00 3.45e+06  -6.0 1.76e+02    -  1.27e-01 3.78e-02h  1
 154 -3.0290128e-02 6.38e+00 9.69e+06  -6.0 2.57e+02    -  2.26e-01 9.31e-02h  1
 155 -3.0293636e-02 6.37e+00 9.72e+06  -6.0 3.45e+02    -  1.79e-03 1.15e-03h  1
 156 -3.0073953e-02 6.01e+00 8.24e+06  -6.0 2.20e+02    -  3.44e-02 5.73e-02h  1
 157 -3.0291162e-02 4.66e+00 3.69e+05  -6.0 2.36e+02    -  6.84e-02 2.24e-01h  1
 158 -3.0311097e-02 4.56e+00 2.28e+07  -6.0 1.88e+02    -  4.16e-01 2.21e-02h  1
 159 -3.0410140e-02 3.98e+00 2.60e+07  -6.0 1.82e+02    -  3.83e-01 1.27e-01h  1
iter    objective    inf_pr   inf_du lg(mu)  ||d||  lg(rg) alpha_du alpha_pr  ls
 160 -3.0469308e-02 3.21e+00 2.18e+07  -6.0 1.62e+02    -  3.40e-01 1.94e-01h  1
 161 -3.0770737e-02 2.66e+00 1.84e+07  -6.0 1.37e+02    -  3.20e-01 1.70e-01h  1
 162 -3.1062947e-02 2.35e+00 9.87e+06  -6.0 1.69e+02    -  1.60e-02 2.11e-01h  1
 163 -3.1681065e-02 5.02e+00 2.27e+07  -6.0 1.35e+02    -  1.08e-02 7.70e-01h  1
 164 -3.2167229e-02 1.53e+00 8.76e+07  -6.0 2.02e+02    -  1.44e-01 6.95e-01h  1
 165 -3.1908782e-02 9.21e-01 5.23e+07  -6.0 1.23e+02    -  5.10e-02 4.04e-01h  1
 166r-3.1908782e-02 9.21e-01 1.00e+03  -0.4 0.00e+00  -3.8 0.00e+00 1.70e-07R  2
 167r-3.1918898e-02 9.19e-01 4.04e+03  -0.4 1.61e+04    -  1.96e-06 2.69e-06f  1
 168 -3.1924666e-02 8.87e-01 2.90e+06  -6.0 7.76e+00    -  4.79e-03 3.52e-02h  1
 169 -3.1926065e-02 8.80e-01 3.22e+06  -6.0 8.24e+00    -  3.52e-02 8.49e-03h  1
iter    objective    inf_pr   inf_du lg(mu)  ||d||  lg(rg) alpha_du alpha_pr  ls
 170 -3.1966245e-02 6.61e-01 2.42e+06  -6.0 6.77e+00    -  1.57e-02 2.49e-01h  1
 171 -3.1976474e-02 6.06e-01 2.22e+06  -6.0 5.70e+00    -  2.90e-01 8.35e-02h  1
 172 -3.2091530e-02 2.44e-02 8.68e+04  -6.0 5.28e+00    -  8.83e-02 9.61e-01h  1
 173 -3.2092234e-02 3.16e-03 2.29e+05  -6.0 1.00e+00    -  9.33e-01 8.65e-01h  1
 174 -3.1693136e-02 8.33e-03 2.15e+06  -6.0 2.80e+01    -  5.70e-01 1.00e+00H  1
 175 -3.2649146e-02 3.63e-02 9.43e+05  -6.0 4.29e+00    -  3.07e-01 1.00e+00h  1
 176 -3.2961737e-02 2.23e-03 1.75e+05  -6.0 3.11e+00    -  8.15e-01 1.00e+00h  1
 177 -3.5037759e-02 1.02e-01 8.73e+04  -6.0 1.83e+01    -  5.02e-01 1.00e+00h  1
 178 -3.8639617e-02 2.67e-01 7.80e+04  -6.0 4.09e+01    -  1.06e-01 8.59e-01h  1
 179 -3.9880056e-02 2.07e-01 4.62e+04  -6.0 5.02e+01    -  4.08e-01 4.25e-01f  1
iter    objective    inf_pr   inf_du lg(mu)  ||d||  lg(rg) alpha_du alpha_pr  ls
 180 -4.3140204e-02 2.00e-01 1.09e+05  -6.0 5.86e+01    -  5.59e-04 7.16e-01h  1
 181 -4.3366183e-02 1.87e-01 1.02e+05  -6.0 7.16e+01    -  2.76e-01 5.97e-02h  1
 182 -4.5664727e-02 1.44e-01 6.65e+04  -6.0 9.94e+01    -  4.39e-01 3.49e-01h  1
 183 -5.1599135e-02 6.64e-01 2.85e+04  -6.0 1.93e+02    -  3.08e-01 5.73e-01h  1
 184 -5.4420331e-02 6.28e-01 2.30e+04  -6.0 3.11e+02    -  6.61e-01 1.93e-01h  1
 185 -6.1667348e-02 1.32e+00 2.00e+04  -6.0 1.61e+03    -  2.94e-01 1.32e-01h  1
 186 -6.2002303e-02 8.04e-01 1.22e+04  -6.0 2.84e+00  -4.3 6.69e-02 3.89e-01h  1
 187 -6.2767452e-02 1.53e-01 2.44e+03  -6.0 2.59e+00  -4.8 2.38e-01 8.10e-01h  1
 188 -6.3101001e-02 9.81e-02 1.76e+03  -6.0 5.74e+00  -5.2 2.81e-01 3.57e-01h  1
 189 -6.4753844e-02 3.36e-01 7.89e+02  -6.0 2.30e+01  -5.7 5.52e-01 6.02e-01h  1
iter    objective    inf_pr   inf_du lg(mu)  ||d||  lg(rg) alpha_du alpha_pr  ls
 190 -6.5353535e-02 3.06e-01 7.60e+02  -6.0 4.07e+01  -6.2 4.82e-02 3.99e-01h  1
 191 -6.6204116e-02 2.55e-01 3.86e+02  -6.0 6.33e+01  -6.7 4.86e-01 2.28e-01h  1
 192 -6.8648206e-02 6.12e-01 4.79e+02  -6.0 2.03e+02  -7.2 6.42e-01 2.74e-01h  1
 193 -6.9397545e-02 6.21e-01 1.67e+03  -6.0 5.08e+02  -7.6 5.35e-01 3.78e-02h  1
 194 -7.0469347e-02 6.24e-01 1.79e+03  -6.0 6.01e+02  -8.1 7.09e-01 4.53e-02h  1
 195 -7.5110818e-02 5.61e-01 2.47e+02  -6.0 1.59e+02  -7.7 1.88e-01 6.89e-01h  1
 196 -7.7532453e-02 4.64e-01 1.97e+03  -6.0 4.51e+02  -8.2 6.72e-04 1.74e-01h  1
 197 -8.0142397e-02 5.29e-01 7.92e+03  -6.0 1.86e+02  -7.7 1.38e-01 4.84e-01h  1
 198 -8.1330745e-02 5.49e-01 4.78e+03  -6.0 5.11e+02  -8.2 2.73e-01 8.22e-02h  1
 199 -8.1971610e-02 6.36e-01 4.81e+03  -6.0 8.83e+03  -8.7 1.10e-02 9.89e-03h  1
iter    objective    inf_pr   inf_du lg(mu)  ||d||  lg(rg) alpha_du alpha_pr  ls
 200 -8.5029751e-02 9.08e-01 3.90e+04  -6.0 5.54e+02  -8.3 6.73e-01 1.88e-01h  1
 201 -8.5535801e-02 9.08e-01 3.59e+04  -6.0 3.30e+03  -8.7 1.70e-01 1.21e-02h  1
 202 -8.6890391e-02 9.19e-01 4.92e+06  -6.0 9.14e+02  -8.3 1.01e-03 7.22e-02h  1
 203 -9.6517600e-02 2.34e+01 4.27e+06  -6.0 7.78e+03  -8.8 4.87e-02 1.33e-01h  1
 204 -9.8309862e-02 2.09e+01 3.75e+06  -6.0 9.91e+02  -8.4 1.12e-01 1.21e-01h  1
 205 -1.0124593e-01 2.57e+01 3.65e+06  -6.0 1.82e+04  -8.8 2.66e-02 2.83e-02h  1
 206 -1.0350961e-01 2.28e+01 3.24e+06  -6.0 5.98e+02  -8.4 1.79e-01 1.11e-01h  1
 207 -1.0865567e-01 1.99e+01 2.70e+06  -6.0 1.32e+03  -8.9 7.58e-02 1.68e-01h  1
 208 -1.1021754e-01 1.82e+01 2.44e+06  -6.0 9.34e+02  -8.5 1.23e-01 9.36e-02h  1
 209 -1.1245694e-01 1.63e+01 2.12e+06  -6.0 2.02e+03  -8.9 2.85e-02 1.32e-01h  1
iter    objective    inf_pr   inf_du lg(mu)  ||d||  lg(rg) alpha_du alpha_pr  ls
 210 -1.1383484e-01 1.36e+01 1.72e+06  -6.0 9.52e+02  -8.5 8.73e-03 1.91e-01h  1
 211 -1.1470697e-01 1.29e+01 1.61e+06  -6.0 1.54e+03  -9.0 2.25e-02 6.13e-02h  1
 212 -1.1654259e-01 9.79e+00 1.14e+06  -6.0 1.21e+03  -8.6 6.42e-02 2.94e-01h  1
 213 -1.1654216e-01 9.67e+00 1.11e+06  -6.0 3.70e+03  -9.0 1.21e-02 2.54e-02h  1
 214 -1.1682037e-01 9.34e+00 1.06e+06  -6.0 1.54e+03  -8.6 2.55e-01 4.17e-02h  1
 215 -1.1733380e-01 8.79e+00 9.98e+05  -6.0 2.21e+03  -9.1 4.49e-02 6.01e-02h  1
 216 -1.1915582e-01 5.94e+00 5.65e+05  -6.0 5.31e+02  -8.7 7.52e-02 4.34e-01h  1
 217 -1.1918152e-01 5.94e+00 5.65e+05  -6.0 3.24e+04  -8.2 2.95e-04 1.11e-04h  1
 218 -1.2024630e-01 5.45e+00 4.42e+05  -6.0 9.64e+02  -8.7 2.78e-01 2.17e-01h  1
 219 -1.2024639e-01 5.45e+00 4.42e+05  -6.0 1.42e+03  -9.2 1.28e-03 1.06e-05h  1
iter    objective    inf_pr   inf_du lg(mu)  ||d||  lg(rg) alpha_du alpha_pr  ls
 220 -1.2090176e-01 4.63e+00 3.71e+05  -6.0 4.23e+02  -8.8 1.63e-01 1.60e-01f  1
 221 -1.2308198e-01 5.73e+00 2.80e+05  -6.0 1.97e+03  -9.2 1.18e-01 2.45e-01h  1
 222 -1.2526916e-01 4.06e+00 1.26e+05  -6.0 6.64e+02  -8.8 4.12e-01 5.49e-01h  1
 223 -1.2659298e-01 8.92e+00 1.06e+05  -6.0 3.17e+03  -9.3 5.98e-02 1.65e-01h  1
 224 -1.2667835e-01 8.54e+00 1.01e+05  -6.0 7.53e+02  -8.9 4.61e-05 4.45e-02h  1
 225 -1.2670475e-01 8.54e+00 1.01e+05  -6.0 3.06e+04  -8.4 6.80e-08 1.18e-04f  2
 226 -1.2675684e-01 8.31e+00 9.82e+04  -6.0 1.03e+02  -7.1 2.19e-01 2.70e-02h  1
 227 -1.2729827e-01 1.41e+01 1.92e+02  -6.0 4.00e+01  -7.6 2.22e-06 1.00e+00f  1
 228 -1.2716581e-01 7.87e+00 1.80e+02  -6.0 8.59e+00  -6.3 5.12e-01 1.00e+00h  1
 229 -1.2720769e-01 4.07e-01 1.62e+01  -6.0 5.80e+00  -6.7 1.00e+00 1.00e+00h  1
iter    objective    inf_pr   inf_du lg(mu)  ||d||  lg(rg) alpha_du alpha_pr  ls
 230 -1.2729254e-01 1.41e-01 1.64e+00  -6.0 1.54e+01  -7.2 1.00e+00 9.52e-01h  1
 231 -1.2755059e-01 6.75e-02 1.09e+00  -6.0 4.44e+01  -7.7 1.00e+00 1.00e+00f  1
 232 -1.2827204e-01 4.04e-01 6.14e+00  -6.0 1.38e+02  -8.2 1.00e+00 1.00e+00h  1
 233 -1.2901457e-01 9.07e-01 2.68e+01  -6.0 4.78e+02  -8.7 1.00e+00 3.69e-01h  1
 234 -1.3017703e-01 7.37e+00 1.34e+01  -6.0 2.37e+03  -9.1 6.12e-01 2.39e-01h  1
 235 -1.3150376e-01 5.16e+00 5.42e+00  -6.0 5.41e+02  -8.7 1.00e+00 8.09e-01h  1
 236 -1.3352636e-01 1.31e+01 1.58e+01  -6.0 1.23e+03  -9.2 7.15e-01 6.15e-01h  1
 237 -1.3413525e-01 1.10e+01 1.73e+01  -6.0 2.61e+03  -9.7 9.87e-02 1.82e-01h  1
 238 -1.3479456e-01 3.84e+01 3.57e+01  -6.0 4.83e+05    -  3.19e-04 1.06e-02h  1
 239 -1.3479569e-01 3.83e+01 1.85e+02  -6.0 1.52e+03  -9.2 8.40e-02 2.55e-03h  1
iter    objective    inf_pr   inf_du lg(mu)  ||d||  lg(rg) alpha_du alpha_pr  ls
 240 -1.3491456e-01 2.24e+01 1.03e+03  -6.0 8.75e+02  -9.7 8.09e-02 4.19e-01h  1
 241 -1.3507753e-01 1.98e+01 8.88e+02  -6.0 1.97e+03 -10.2 4.97e-02 1.15e-01h  1
 242 -1.3507556e-01 1.57e+01 7.05e+02  -6.0 2.68e+02  -8.9 2.25e-01 2.07e-01h  1
 243 -1.3557586e-01 1.74e+01 6.14e+02  -6.0 7.98e+03    -  2.06e-01 1.35e-01h  1
 244 -1.3652722e-01 7.75e+01 3.84e+02  -6.0 5.89e+03    -  3.57e-01 3.75e-01h  1
 245 -1.3679512e-01 4.24e+01 2.09e+02  -6.0 1.96e+03    -  1.51e-01 4.62e-01h  1
 246 -1.3686962e-01 2.74e+01 1.34e+02  -6.0 8.44e+02  -9.3 1.47e-01 3.60e-01h  1
 247 -1.3689942e-01 2.66e+01 1.30e+02  -6.0 2.78e+03  -9.8 8.35e-05 2.68e-02H  1
 248 -1.3705791e-01 4.45e+01 1.29e+02  -6.0 1.74e+05    -  3.01e-03 6.32e-03h  1
 249 -1.3724422e-01 3.45e+01 8.15e+01  -6.0 1.70e+03    -  3.20e-01 3.71e-01h  1
iter    objective    inf_pr   inf_du lg(mu)  ||d||  lg(rg) alpha_du alpha_pr  ls
 250 -1.3731940e-01 2.07e+01 4.39e+01  -6.0 9.01e+02    -  4.83e-01 4.60e-01h  1
 251 -1.3726242e-01 7.82e+00 1.33e+01  -6.0 6.88e+02 -10.3 1.00e+00 6.50e-01h  1
 252 -1.3738929e-01 2.07e+01 6.34e+01  -6.0 1.33e+03    -  2.76e-01 1.00e+00h  1
 253 -1.3744318e-01 3.77e+00 3.62e+01  -6.0 5.75e+02 -10.8 1.60e-01 1.00e+00h  1
 254 -1.3743319e-01 1.45e+00 1.58e+00  -6.0 2.90e+02    -  9.58e-01 1.00e+00h  1
 255 -1.3741524e-01 1.20e+01 4.58e+01  -6.0 1.81e+03 -10.3 3.18e-01 1.00e+00H  1
 256 -1.3734774e-01 8.94e-01 1.63e+00  -6.0 2.07e+02  -9.9 1.00e+00 1.00e+00h  1
 257 -1.3731264e-01 8.65e+00 8.33e+00  -6.0 7.10e+02 -10.4 4.21e-01 1.00e+00h  1
 258 -1.3735224e-01 3.30e+01 4.91e+01  -6.0 1.65e+03 -10.9 5.60e-02 1.00e+00H  1
 259 -1.3726481e-01 2.05e+00 1.81e+01  -6.0 4.36e+02    -  1.00e+00 1.00e+00h  1
iter    objective    inf_pr   inf_du lg(mu)  ||d||  lg(rg) alpha_du alpha_pr  ls
 260 -1.3730060e-01 1.16e+01 1.94e+01  -6.0 1.74e+04 -11.3 7.91e-03 5.00e-02h  2
 261 -1.3738827e-01 1.77e+01 5.89e+01  -6.0 3.27e+03    -  1.23e-01 2.52e-01h  1
 262 -1.3732800e-01 8.60e-01 1.08e+01  -6.0 1.82e+02    -  5.24e-01 1.00e+00h  1
 263 -1.3735397e-01 1.43e+00 1.41e+00  -6.0 1.64e+02    -  1.00e+00 1.00e+00h  1
 264 -1.3735543e-01 1.48e+00 9.48e+00  -6.0 5.68e+02    -  1.33e-01 5.00e-01h  2
 265 -1.3735513e-01 3.43e+00 9.26e+00  -6.0 1.21e+04    -  4.79e-02 3.80e-02h  2
 266 -1.3734433e-01 8.13e+00 1.60e+01  -6.0 1.03e+04    -  1.03e-01 5.73e-02h  2
 267 -1.3744374e-01 3.29e+01 3.73e+01  -6.0 2.79e+03 -10.9 3.54e-02 1.00e+00H  1
 268 -1.3736622e-01 9.60e+00 2.14e+01  -6.0 1.43e+03    -  1.00e+00 5.00e-01h  2
 269 -1.3736570e-01 5.13e-03 5.21e-02  -6.0 1.80e+01  -8.7 1.00e+00 1.00e+00h  1
iter    objective    inf_pr   inf_du lg(mu)  ||d||  lg(rg) alpha_du alpha_pr  ls
 270 -1.3736139e-01 3.15e+00 3.87e+00  -6.0 3.72e+02    -  4.54e-01 1.00e+00h  1
 271 -1.3735004e-01 6.60e-02 2.11e-01  -6.0 3.32e+01  -9.2 1.00e+00 1.00e+00h  1
 272 -1.3733020e-01 9.00e-01 1.07e+00  -6.0 8.96e+01  -9.6 1.00e+00 1.00e+00h  1
 273 -1.3734650e-01 9.58e-01 4.65e+00  -6.0 1.75e+02    -  6.18e-01 1.00e+00h  1
 274 -1.3732371e-01 1.30e+00 2.98e+00  -6.0 5.09e+02    -  1.00e+00 1.00e+00H  1
 275 -1.3732696e-01 1.05e-01 2.16e-01  -6.0 8.19e+01    -  1.00e+00 1.00e+00h  1
 276 -1.3732641e-01 3.73e-05 2.64e-04  -6.0 1.47e+00    -  1.00e+00 1.00e+00h  1
 277 -1.3732642e-01 4.91e-08 1.24e-07  -6.0 5.70e-02    -  1.00e+00 1.00e+00h  1
 278 -1.3783628e-01 7.45e-01 4.07e+01  -7.5 2.84e+03    -  1.84e-01 1.65e-01f  1
 279 -1.3851978e-01 4.23e+00 1.97e+02  -7.5 2.86e+03    -  2.92e-01 2.87e-01h  1
iter    objective    inf_pr   inf_du lg(mu)  ||d||  lg(rg) alpha_du alpha_pr  ls
 280 -1.3858140e-01 4.23e+00 1.74e+02  -7.5 2.82e+03    -  4.13e-01 4.13e-02h  1
 281 -1.3886011e-01 5.05e+00 2.80e+02  -7.5 3.06e+03    -  3.15e-01 2.55e-01h  1
 282 -1.3891514e-01 8.80e+00 2.67e+02  -7.5 9.35e+03    -  1.67e-01 6.14e-02h  1
 283 -1.3891565e-01 8.53e+00 2.60e+02  -7.5 7.07e+02  -6.5 9.04e-07 3.15e-02h  1
 284 -1.3891583e-01 8.52e+00 2.59e+02  -7.5 4.39e+01  -7.0 2.77e-02 1.81e-03h  1
 285 -1.3913347e-01 2.12e+01 8.35e+02  -7.5 3.85e+03    -  8.65e-03 2.56e-01f  1
 286 -1.3913247e-01 2.10e+01 1.78e+03  -7.5 2.28e+02  -6.6 2.65e-05 6.40e-03h  1
 287 -1.3913247e-01 2.03e+01 1.63e+03  -7.5 2.75e+01  -7.0 2.37e-03 3.43e-02h  1
 288 -1.3912496e-01 1.98e+01 1.57e+03  -7.5 2.32e+03    -  4.08e-06 3.28e-02h  1
 289 -1.3913365e-01 1.90e+01 1.38e+03  -7.5 2.55e+02  -7.5 1.20e-02 3.85e-02h  1
iter    objective    inf_pr   inf_du lg(mu)  ||d||  lg(rg) alpha_du alpha_pr  ls
 290 -1.3912599e-01 1.89e+01 1.35e+03  -7.5 5.70e+03    -  6.66e-07 1.25e-02h  1
 291 -1.3916204e-01 1.80e+01 1.20e+03  -7.5 2.29e+03    -  3.36e-03 8.25e-02h  1
 292 -1.3916336e-01 1.78e+01 6.24e+03  -7.5 8.59e+02  -7.1 7.77e-04 1.20e-02f  1
 293 -1.3915834e-01 1.50e+01 1.83e+04  -7.5 8.66e+00  -6.7 4.49e-02 1.56e-01h  1
 294 -1.3915936e-01 1.10e+01 1.73e+04  -7.5 2.67e+01  -7.1 2.41e-01 2.67e-01h  1
 295 -1.3913817e-01 2.80e+00 1.33e+04  -7.5 2.28e+01  -7.6 5.65e-01 7.46e-01h  1
 296 -1.3914569e-01 2.53e+00 1.21e+04  -7.5 4.08e+01  -8.1 2.48e-01 9.41e-02h  1
 297 -1.3917002e-01 1.63e+00 7.79e+03  -7.5 3.69e+01  -8.6 2.31e-01 3.57e-01h  1
 298 -1.3920082e-01 1.14e+00 5.40e+03  -7.5 1.54e+02  -9.0 9.30e-01 3.10e-01h  1
 299 -1.3922691e-01 1.05e+00 4.96e+03  -7.5 1.08e+03  -9.5 3.99e-01 8.15e-02h  1
iter    objective    inf_pr   inf_du lg(mu)  ||d||  lg(rg) alpha_du alpha_pr  ls
 300 -1.3938397e-01 2.95e+01 4.12e+03  -7.5 1.05e+04    -  6.24e-02 1.17e-01h  1
 301 -1.3939467e-01 2.91e+01 4.06e+03  -7.5 3.88e+03    -  1.98e-01 1.55e-02h  1
 302 -1.3944708e-01 3.04e+01 3.80e+03  -7.5 5.37e+03    -  2.52e-01 7.73e-02h  1
Error in an AMPL evaluation. Run with "halt_on_ampl_error yes" to see details.
Warning: Cutting back alpha due to evaluation error
 303 -1.3945752e-01 2.71e+01 5.87e+03  -7.5 1.64e+03    -  1.27e-03 1.07e-01h  2
 304 -1.3947734e-01 2.67e+01 5.77e+03  -7.5 6.43e+04    -  1.64e-03 1.73e-02h  1
 305 -1.3950221e-01 2.16e+01 4.70e+03  -7.5 1.61e+03    -  5.79e-02 1.90e-01h  1
 306 -1.3950459e-01 2.03e+01 4.38e+03  -7.5 1.28e+03    -  1.57e-01 6.09e-02h  1
 307 -1.3955865e-01 4.73e+00 1.68e+03  -7.5 1.23e+03    -  1.83e-01 7.87e-01h  1
 308 -1.3959985e-01 3.46e+01 1.65e+03  -7.5 2.60e+03    -  2.10e-01 4.74e-01h  1
 309 -1.3959985e-01 3.28e+01 1.01e+04  -7.5 1.09e+03    -  1.46e-01 5.44e-02h  1
iter    objective    inf_pr   inf_du lg(mu)  ||d||  lg(rg) alpha_du alpha_pr  ls
 310 -1.3962436e-01 2.59e+01 9.07e+04  -7.5 3.13e+03    -  8.74e-02 2.08e-01h  1
 311 -1.3966172e-01 3.05e+01 1.28e+05  -7.5 1.28e+03 -10.0 2.85e-01 9.81e-01h  1
 312 -1.3967831e-01 2.77e+01 1.15e+05  -7.5 5.64e+03    -  4.16e-01 1.01e-01h  1
 313 -1.3972395e-01 1.66e+01 1.16e+04  -7.5 9.03e+02 -10.5 1.37e-01 7.82e-01h  1
 314 -1.3975489e-01 2.06e+01 6.04e+03  -7.5 3.54e+03 -11.0 9.29e-02 1.58e-01h  1
 315 -1.3979127e-01 2.07e+01 4.26e+03  -7.5 2.14e+03 -10.5 1.08e-02 2.07e-01h  1
 316 -1.3980310e-01 2.08e+01 4.12e+03  -7.5 3.58e+04    -  8.15e-02 2.77e-02h  1
 317 -1.3980494e-01 2.07e+01 4.11e+03  -7.5 8.59e+03    -  8.65e-03 2.34e-03h  1
Error in an AMPL evaluation. Run with "halt_on_ampl_error yes" to see details.
Warning: Cutting back alpha due to evaluation error
 318 -1.3981171e-01 1.39e+01 1.13e+03  -7.5 4.06e+02    -  4.57e-02 3.29e-01h  2
 319 -1.3982419e-01 2.23e+01 1.10e+03  -7.5 3.02e+04    -  9.98e-02 3.33e-02h  1
iter    objective    inf_pr   inf_du lg(mu)  ||d||  lg(rg) alpha_du alpha_pr  ls
 320 -1.3982509e-01 1.50e+01 7.25e+02  -7.5 3.91e+02    -  6.74e-02 3.37e-01h  1
 321 -1.3982950e-01 1.60e+01 6.81e+02  -7.5 6.60e+03    -  4.86e-01 6.08e-02h  1
 322 -1.3982631e-01 1.55e-01 2.94e+01  -7.5 9.34e+01    -  2.49e-01 1.00e+00h  1
 323 -1.3982682e-01 3.80e-03 2.06e+00  -7.5 1.80e+01  -9.2 1.00e+00 1.00e+00h  1
 324 -1.3983270e-01 3.50e+00 1.89e+00  -7.5 7.16e+04    -  3.66e-02 7.61e-03h  1
 325 -1.3983153e-01 9.36e-02 7.76e-01  -7.5 8.66e+01    -  4.16e-01 1.00e+00h  1
 326 -1.3983245e-01 1.42e-01 1.16e-01  -7.5 1.85e+02    -  1.00e+00 4.88e-01h  1
 327 -1.3983239e-01 1.63e-04 6.16e-06  -7.5 3.62e+00    -  1.00e+00 1.00e+00h  1
 328 -1.3983239e-01 5.41e-08 6.88e-09  -7.5 6.87e-02    -  1.00e+00 1.00e+00h  1
 329 -1.3983632e-01 2.50e-01 3.56e+00  -9.0 2.42e+02    -  8.58e-01 4.68e-01h  1
iter    objective    inf_pr   inf_du lg(mu)  ||d||  lg(rg) alpha_du alpha_pr  ls
 330 -1.3983741e-01 4.23e-01 1.79e+00  -9.0 1.61e+02    -  1.00e+00 8.78e-01h  1
 331 -1.3983729e-01 8.62e-03 8.14e-03  -9.0 2.05e+01    -  1.00e+00 1.00e+00h  1
 332 -1.3983729e-01 7.02e-07 1.75e-08  -9.0 1.97e-01    -  1.00e+00 1.00e+00h  1
 333 -1.3983729e-01 3.05e-10 1.20e-13  -9.0 3.84e-05    -  1.00e+00 1.00e+00h  1

Number of Iterations....: 333

                                   (scaled)                 (unscaled)
Objective...............:  -1.3983729067041917e-01   -1.3983729067041917e-01
Dual infeasibility......:   1.1968204205459188e-13    1.1968204205459188e-13
Constraint violation....:   3.0548412465001423e-10    3.0548412465001423e-10
Complementarity.........:   9.1017678421515325e-10    9.1017678421515325e-10
Overall NLP error.......:   9.1017678421515325e-10    9.1017678421515325e-10


Number of objective function evaluations             = 919
Number of objective gradient evaluations             = 333
Number of equality constraint evaluations            = 921
Number of inequality constraint evaluations          = 920
Number of equality constraint Jacobian evaluations   = 344
Number of inequality constraint Jacobian evaluations = 344
Number of Lagrangian Hessian evaluations             = 333
Total CPU secs in IPOPT (w/o function evaluations)   =    139.927
Total CPU secs in NLP function evaluations           =      6.918

EXIT: Optimal Solution Found.
